                units     real      
           atom_style     full      
           pair_style     hybrid soft 25.0 srlr_gauss 40.0 gauss/wall 25.0 lj/cut 20 #yukawa 3.5 15
           bond_style     harmonic  
