                units     real      
           atom_style     full      
           pair_style     hybrid/overlay soft 25.0 srlr_gauss 40.0 gauss/wall 25.0  
           bond_style     harmonic
	   angle_style    harmonic  
